; benchmark generated from python API
(set-info :status unknown)
(declare-datatypes ((RealState 0)) (((RMk1 (rval1 Real)) (RMk2 (rval2 Real)))))
 (assert
 (forall ((|v11:0| Real) )(exists ((|v10:1_st| RealState) (val!2988 Real) )(forall ((|v9:2| Real) )(exists ((|v8:3_st| RealState) (val!2989 Real) )(forall ((|v7:4| Real) )(exists ((|v6:5_st| RealState) (val!2990 Real) )(forall ((|v5:6| Real) )(exists ((|v4:7_st| RealState) (val!2991 Real) )(forall ((|v3:8| Real) )(exists ((|v2:9_st| RealState) (val!2992 Real) )(forall ((|v1:10| Real) )(exists ((|v0:11_st| RealState) (val!2993 Real) )(let ((?x721 (- 5.0)))
 (let ((?x908 (+ (+ (* (- 3.0) (rval2 |v6:5_st|)) (* 0.0 (rval2 |v0:11_st|))) (* (- 17.0) |v7:4|))))
 (let (($x1423 (not (= |v0:11_st| (RMk1 val!2993)))))
 (let (($x1277 (not (= |v4:7_st| (RMk1 val!2991)))))
 (let (($x1151 (not (= |v6:5_st| (RMk1 val!2990)))))
 (and (not (= |v10:1_st| (RMk1 val!2988))) (not (= |v8:3_st| (RMk1 val!2989))) $x1151 $x1277 (not (= |v2:9_st| (RMk1 val!2992))) $x1423 (<= (+ ?x908 (* 11.0 (rval2 |v4:7_st|))) ?x721))))))))
 )
 )
 )
 )
 )
 )
 )
 )
 )
 )
 )
 )
(check-sat)
